NAME          EXAMPLE
ROWS
 N  COST
 L  C1
 L  C2
 L  C3
 L  C4
COLUMNS
    X         COST         3
    X         C1           2
    X         C2           1
    X         C3           1
    Y         COST         5
    Y         C1           3
    Y         C2           2
    Y         C4           1
RHS
    RHS1      C1          10
    RHS1      C2           6
    RHS1      C3           4
    RHS1      C4           3
BOUNDS
 UP BOUND     X            4
 UP BOUND     Y            3
ENDATA